
50
92961

747 6885
4340 3927
3720 3366
581 5355
1860 1683
4960 4488
830 7650
5580 5049
620 561
332 3060
747 6885
581 5355
83 765
1860 1683
83 765
6200 5610
3720 3366
2480 2244
747 6885
5580 5049
664 6120
498 4590
4340 3927
4960 4488
249 2295
620 561
3720 3366
4340 3927
4340 3927
83 765
620 561
3720 3366
3720 3366
498 4590
1860 1683
4340 3927
498 4590
620 561
3720 3366
4960 4488
2480 2244
6200 5610
747 6885
747 6885
332 3060
6200 5610
747 6885
166 1530
1860 1683
249 2295
